100
    1   218   218
    2    95    95
    3   419   419
    4   667   667
    5     5     5
    6   177   177
    7   426   426
    8   321   321
    9    15    15
   10   722   722
   11   464   464
   12   974   974
   13   528   528
   14   522   522
   15   818   818
   16   792   792
   17   760   760
   18   807   807
   19   721   721
   20   663   663
   21   910   910
   22   864   864
   23   458   458
   24   664   664
   25   703   703
   26   220   220
   27   571   571
   28   311   311
   29   767   767
   30   504   504
   31    91    91
   32   697   697
   33   272   272
   34   527   527
   35   807   807
   36   111   111
   37   724   724
   38    59    59
   39   549   549
   40   254   254
   41   664   664
   42   946   946
   43    78    78
   44   772   772
   45   447   447
   46   237   237
   47   757   757
   48   981   981
   49   319   319
   50   946   946
   51   207   207
   52   707   707
   53   901   901
   54   433   433
   55   726   726
   56    76    76
   57   560   560
   58   611   611
   59   446   446
   60   653   653
   61   380   380
   62   398   398
   63   842   842
   64   221   221
   65   246   246
   66   989   989
   67   908   908
   68   756   756
   69   303   303
   70   244   244
   71   376   376
   72    82    82
   73   655   655
   74   850   850
   75   947   947
   76   996   996
   77   679   679
   78   655   655
   79   797   797
   80   776   776
   81     2     2
   82    69    69
   83   920   920
   84   850   850
   85   665   665
   86   114   114
   87   812   812
   88   792   792
   89   682   682
   90   195   195
   91   953   953
   92   136   136
   93   540   540
   94   605   605
   95   472   472
   96   145   145
   97    50    50
   98    45    45
   99   823   823
  100   390   390
26502
